75
[15,16,17,18,19,20,21,22,23,24,25,26,27,28,29,30,31,32,33,34,35,36,37,38,39,40,41,42,43,44,45,46,47,48,49,50,51,52,53,54,55,56,57,58,59,60]
[2,7,9,7,9,8,10,9,7,15,11,12,8,7,13,13,9,14,5,9,8,10,7,6,5,9,2,6,7,15,14,8,5,11,6,9,9,10,9,4,5,14,9,11,7,10]
